# Objective value = 0
c_n16_e16_17_18 0
c_n2_e6_17_19 0
c_n3_e18_20_21 0
c_n5_e2_22_23 0
c_n8_e1_19_20 0
c_n8_e1_2_19 0
c_n8_e1_2_20 0
c_n8_e2_19_20 0
imbalance 0
x_e0_e1 0
x_e1_e0 1
x_e0_e2 0
x_e2_e0 1
x_e0_e3 0
x_e3_e0 1
x_e0_e4 0
x_e4_e0 1
x_e0_e5 0
x_e5_e0 1
x_e0_e6 0
x_e6_e0 1
x_e0_e7 0
x_e7_e0 1
x_e0_e8 0
x_e8_e0 1
x_e0_e9 0
x_e9_e0 1
x_e0_e10 0
x_e10_e0 1
x_e0_e11 0
x_e11_e0 1
x_e0_e12 0
x_e12_e0 1
x_e0_e13 0
x_e13_e0 1
x_e0_e14 0
x_e14_e0 1
x_e0_e15 0
x_e15_e0 1
x_e0_e16 0
x_e16_e0 1
x_e0_e17 0
x_e17_e0 1
x_e0_e18 0
x_e18_e0 1
x_e0_e19 0
x_e19_e0 1
x_e0_e20 0
x_e20_e0 1
x_e0_e21 0
x_e21_e0 1
x_e0_e22 0
x_e22_e0 1
x_e0_e23 0
x_e23_e0 1
x_e1_e2 0
x_e2_e1 1
x_e1_e3 0
x_e3_e1 1
x_e1_e4 0
x_e4_e1 1
x_e1_e5 0
x_e5_e1 1
x_e1_e6 0
x_e6_e1 1
x_e1_e7 0
x_e7_e1 1
x_e1_e8 0
x_e8_e1 1
x_e1_e9 0
x_e9_e1 1
x_e1_e10 0
x_e10_e1 1
x_e1_e11 0
x_e11_e1 1
x_e1_e12 0
x_e12_e1 1
x_e1_e13 0
x_e13_e1 1
x_e1_e14 0
x_e14_e1 1
x_e1_e15 0
x_e15_e1 1
x_e1_e16 0
x_e16_e1 1
x_e1_e17 0
x_e17_e1 1
x_e1_e18 0
x_e18_e1 1
x_e1_e19 0
x_e19_e1 1
x_e1_e20 0
x_e20_e1 1
x_e1_e21 0
x_e21_e1 1
x_e1_e22 0
x_e22_e1 1
x_e1_e23 0
x_e23_e1 1
x_e2_e3 0
x_e3_e2 1
x_e2_e4 1
x_e4_e2 0
x_e2_e5 0
x_e5_e2 1
x_e2_e6 0
x_e6_e2 1
x_e2_e7 0
x_e7_e2 1
x_e2_e8 0
x_e8_e2 1
x_e2_e9 0
x_e9_e2 1
x_e2_e10 0
x_e10_e2 1
x_e2_e11 0
x_e11_e2 1
x_e2_e12 0
x_e12_e2 1
x_e2_e13 0
x_e13_e2 1
x_e2_e14 0
x_e14_e2 1
x_e2_e15 0
x_e15_e2 1
x_e2_e16 0
x_e16_e2 1
x_e2_e17 0
x_e17_e2 1
x_e2_e18 0
x_e18_e2 1
x_e2_e19 0
x_e19_e2 1
x_e2_e20 0
x_e20_e2 1
x_e2_e21 0
x_e21_e2 1
x_e2_e22 0
x_e22_e2 1
x_e2_e23 0
x_e23_e2 1
x_e3_e4 1
x_e4_e3 0
x_e3_e5 0
x_e5_e3 1
x_e3_e6 0
x_e6_e3 1
x_e3_e7 0
x_e7_e3 1
x_e3_e8 0
x_e8_e3 1
x_e3_e9 0
x_e9_e3 1
x_e3_e10 0
x_e10_e3 1
x_e3_e11 0
x_e11_e3 1
x_e3_e12 0
x_e12_e3 1
x_e3_e13 0
x_e13_e3 1
x_e3_e14 0
x_e14_e3 1
x_e3_e15 0
x_e15_e3 1
x_e3_e16 0
x_e16_e3 1
x_e3_e17 0
x_e17_e3 1
x_e3_e18 0
x_e18_e3 1
x_e3_e19 0
x_e19_e3 1
x_e3_e20 0
x_e20_e3 1
x_e3_e21 0
x_e21_e3 1
x_e3_e22 0
x_e22_e3 1
x_e3_e23 0
x_e23_e3 1
x_e4_e5 0
x_e5_e4 1
x_e4_e6 0
x_e6_e4 1
x_e4_e7 0
x_e7_e4 1
x_e4_e8 0
x_e8_e4 1
x_e4_e9 0
x_e9_e4 1
x_e4_e10 0
x_e10_e4 1
x_e4_e11 0
x_e11_e4 1
x_e4_e12 0
x_e12_e4 1
x_e4_e13 0
x_e13_e4 1
x_e4_e14 0
x_e14_e4 1
x_e4_e15 0
x_e15_e4 1
x_e4_e16 0
x_e16_e4 1
x_e4_e17 0
x_e17_e4 1
x_e4_e18 0
x_e18_e4 1
x_e4_e19 0
x_e19_e4 1
x_e4_e20 0
x_e20_e4 1
x_e4_e21 0
x_e21_e4 1
x_e4_e22 0
x_e22_e4 1
x_e4_e23 0
x_e23_e4 1
x_e5_e6 1
x_e6_e5 0
x_e5_e7 0
x_e7_e5 1
x_e5_e8 0
x_e8_e5 1
x_e5_e9 0
x_e9_e5 1
x_e5_e10 0
x_e10_e5 1
x_e5_e11 0
x_e11_e5 1
x_e5_e12 0
x_e12_e5 1
x_e5_e13 0
x_e13_e5 1
x_e5_e14 0
x_e14_e5 1
x_e5_e15 0
x_e15_e5 1
x_e5_e16 0
x_e16_e5 1
x_e5_e17 0
x_e17_e5 1
x_e5_e18 0
x_e18_e5 1
x_e5_e19 0
x_e19_e5 1
x_e5_e20 0
x_e20_e5 1
x_e5_e21 0
x_e21_e5 1
x_e5_e22 0
x_e22_e5 1
x_e5_e23 0
x_e23_e5 1
x_e6_e7 0
x_e7_e6 1
x_e6_e8 0
x_e8_e6 1
x_e6_e9 0
x_e9_e6 1
x_e6_e10 0
x_e10_e6 1
x_e6_e11 0
x_e11_e6 1
x_e6_e12 0
x_e12_e6 1
x_e6_e13 0
x_e13_e6 1
x_e6_e14 0
x_e14_e6 1
x_e6_e15 0
x_e15_e6 1
x_e6_e16 0
x_e16_e6 1
x_e6_e17 0
x_e17_e6 1
x_e6_e18 0
x_e18_e6 1
x_e6_e19 0
x_e19_e6 1
x_e6_e20 0
x_e20_e6 1
x_e6_e21 0
x_e21_e6 1
x_e6_e22 0
x_e22_e6 1
x_e6_e23 0
x_e23_e6 1
x_e7_e8 0
x_e8_e7 1
x_e7_e9 0
x_e9_e7 1
x_e7_e10 0
x_e10_e7 1
x_e7_e11 0
x_e11_e7 1
x_e7_e12 0
x_e12_e7 1
x_e7_e13 0
x_e13_e7 1
x_e7_e14 0
x_e14_e7 1
x_e7_e15 0
x_e15_e7 1
x_e7_e16 0
x_e16_e7 1
x_e7_e17 0
x_e17_e7 1
x_e7_e18 0
x_e18_e7 1
x_e7_e19 0
x_e19_e7 1
x_e7_e20 0
x_e20_e7 1
x_e7_e21 0
x_e21_e7 1
x_e7_e22 0
x_e22_e7 1
x_e7_e23 0
x_e23_e7 1
x_e8_e9 0
x_e9_e8 1
x_e8_e10 0
x_e10_e8 1
x_e8_e11 0
x_e11_e8 1
x_e8_e12 0
x_e12_e8 1
x_e8_e13 0
x_e13_e8 1
x_e8_e14 0
x_e14_e8 1
x_e8_e15 0
x_e15_e8 1
x_e8_e16 0
x_e16_e8 1
x_e8_e17 0
x_e17_e8 1
x_e8_e18 0
x_e18_e8 1
x_e8_e19 0
x_e19_e8 1
x_e8_e20 0
x_e20_e8 1
x_e8_e21 0
x_e21_e8 1
x_e8_e22 0
x_e22_e8 1
x_e8_e23 0
x_e23_e8 1
x_e9_e10 1
x_e10_e9 0
x_e9_e11 0
x_e11_e9 1
x_e9_e12 0
x_e12_e9 1
x_e9_e13 0
x_e13_e9 1
x_e9_e14 0
x_e14_e9 1
x_e9_e15 0
x_e15_e9 1
x_e9_e16 0
x_e16_e9 1
x_e9_e17 0
x_e17_e9 1
x_e9_e18 0
x_e18_e9 1
x_e9_e19 0
x_e19_e9 1
x_e9_e20 0
x_e20_e9 1
x_e9_e21 0
x_e21_e9 1
x_e9_e22 0
x_e22_e9 1
x_e9_e23 0
x_e23_e9 1
x_e10_e11 0
x_e11_e10 1
x_e10_e12 0
x_e12_e10 1
x_e10_e13 0
x_e13_e10 1
x_e10_e14 0
x_e14_e10 1
x_e10_e15 0
x_e15_e10 1
x_e10_e16 0
x_e16_e10 1
x_e10_e17 0
x_e17_e10 1
x_e10_e18 0
x_e18_e10 1
x_e10_e19 0
x_e19_e10 1
x_e10_e20 0
x_e20_e10 1
x_e10_e21 0
x_e21_e10 1
x_e10_e22 0
x_e22_e10 1
x_e10_e23 0
x_e23_e10 1
x_e11_e12 0
x_e12_e11 1
x_e11_e13 0
x_e13_e11 1
x_e11_e14 0
x_e14_e11 1
x_e11_e15 0
x_e15_e11 1
x_e11_e16 0
x_e16_e11 1
x_e11_e17 0
x_e17_e11 1
x_e11_e18 0
x_e18_e11 1
x_e11_e19 0
x_e19_e11 1
x_e11_e20 0
x_e20_e11 1
x_e11_e21 0
x_e21_e11 1
x_e11_e22 0
x_e22_e11 1
x_e11_e23 0
x_e23_e11 1
x_e12_e13 0
x_e13_e12 1
x_e12_e14 0
x_e14_e12 1
x_e12_e15 0
x_e15_e12 1
x_e12_e16 0
x_e16_e12 1
x_e12_e17 0
x_e17_e12 1
x_e12_e18 0
x_e18_e12 1
x_e12_e19 0
x_e19_e12 1
x_e12_e20 0
x_e20_e12 1
x_e12_e21 0
x_e21_e12 1
x_e12_e22 0
x_e22_e12 1
x_e12_e23 0
x_e23_e12 1
x_e13_e14 0
x_e14_e13 1
x_e13_e15 0
x_e15_e13 1
x_e13_e16 0
x_e16_e13 1
x_e13_e17 0
x_e17_e13 1
x_e13_e18 0
x_e18_e13 1
x_e13_e19 0
x_e19_e13 1
x_e13_e20 0
x_e20_e13 1
x_e13_e21 0
x_e21_e13 1
x_e13_e22 0
x_e22_e13 1
x_e13_e23 0
x_e23_e13 1
x_e14_e15 0
x_e15_e14 1
x_e14_e16 0
x_e16_e14 1
x_e14_e17 0
x_e17_e14 1
x_e14_e18 0
x_e18_e14 1
x_e14_e19 0
x_e19_e14 1
x_e14_e20 0
x_e20_e14 1
x_e14_e21 0
x_e21_e14 1
x_e14_e22 0
x_e22_e14 1
x_e14_e23 0
x_e23_e14 1
x_e15_e16 0
x_e16_e15 1
x_e15_e17 0
x_e17_e15 1
x_e15_e18 0
x_e18_e15 1
x_e15_e19 0
x_e19_e15 1
x_e15_e20 0
x_e20_e15 1
x_e15_e21 0
x_e21_e15 1
x_e15_e22 0
x_e22_e15 1
x_e15_e23 0
x_e23_e15 1
x_e16_e17 1
x_e17_e16 0
x_e16_e18 0
x_e18_e16 1
x_e16_e19 0
x_e19_e16 1
x_e16_e20 0
x_e20_e16 1
x_e16_e21 0
x_e21_e16 1
x_e16_e22 0
x_e22_e16 1
x_e16_e23 0
x_e23_e16 1
x_e17_e18 0
x_e18_e17 1
x_e17_e19 0
x_e19_e17 1
x_e17_e20 0
x_e20_e17 1
x_e17_e21 0
x_e21_e17 1
x_e17_e22 0
x_e22_e17 1
x_e17_e23 0
x_e23_e17 1
x_e18_e19 0
x_e19_e18 1
x_e18_e20 0
x_e20_e18 1
x_e18_e21 0
x_e21_e18 1
x_e18_e22 0
x_e22_e18 1
x_e18_e23 0
x_e23_e18 1
x_e19_e20 0
x_e20_e19 1
x_e19_e21 0
x_e21_e19 1
x_e19_e22 0
x_e22_e19 1
x_e19_e23 0
x_e23_e19 1
x_e20_e21 1
x_e21_e20 0
x_e20_e22 0
x_e22_e20 1
x_e20_e23 0
x_e23_e20 1
x_e21_e22 0
x_e22_e21 1
x_e21_e23 0
x_e23_e21 1
x_e22_e23 1
x_e23_e22 0
y_0_1 0
y_1_0 1
y_0_2 0
y_2_0 1
y_0_3 0
y_3_0 1
y_0_4 0
y_4_0 1
y_0_5 0
y_5_0 1
y_0_6 0
y_6_0 1
y_0_7 0
y_7_0 1
y_0_8 0
y_8_0 1
y_0_9 0
y_9_0 1
y_0_10 0
y_10_0 1
y_0_11 0
y_11_0 1
y_0_12 0
y_12_0 1
y_0_13 0
y_13_0 1
y_0_14 0
y_14_0 1
y_0_15 0
y_15_0 1
y_0_16 0
y_16_0 1
y_0_17 0
y_17_0 1
y_0_18 0
y_18_0 1
y_0_19 0
y_19_0 1
y_0_20 0
y_20_0 1
y_0_21 0
y_21_0 1
y_0_22 0
y_22_0 1
y_0_23 0
y_23_0 1
y_0_24 0
y_24_0 1
y_0_25 0
y_25_0 1
y_0_26 0
y_26_0 1
y_0_27 0
y_27_0 1
y_0_28 0
y_28_0 1
y_0_29 0
y_29_0 1
y_0_30 0
y_30_0 1
y_0_31 0
y_31_0 1
y_0_32 0
y_32_0 1
y_0_33 0
y_33_0 1
y_0_34 0
y_34_0 1
y_0_35 0
y_35_0 1
y_0_36 0
y_36_0 1
y_0_37 0
y_37_0 1
y_0_38 0
y_38_0 1
y_0_39 0
y_39_0 1
y_1_2 1
y_2_1 0
y_1_3 1
y_3_1 0
y_1_4 0
y_4_1 1
y_1_5 0
y_5_1 1
y_1_6 0
y_6_1 1
y_1_7 0
y_7_1 1
y_1_8 0
y_8_1 1
y_1_9 0
y_9_1 1
y_1_10 0
y_10_1 1
y_1_11 0
y_11_1 1
y_1_12 0
y_12_1 1
y_1_13 0
y_13_1 1
y_1_14 0
y_14_1 1
y_1_15 0
y_15_1 1
y_1_16 0
y_16_1 1
y_1_17 0
y_17_1 1
y_1_18 0
y_18_1 1
y_1_19 0
y_19_1 1
y_1_20 0
y_20_1 1
y_1_21 0
y_21_1 1
y_1_22 0
y_22_1 1
y_1_23 0
y_23_1 1
y_1_24 0
y_24_1 1
y_1_25 0
y_25_1 1
y_1_26 0
y_26_1 1
y_1_27 0
y_27_1 1
y_1_28 0
y_28_1 1
y_1_29 0
y_29_1 1
y_1_30 0
y_30_1 1
y_1_31 0
y_31_1 1
y_1_32 0
y_32_1 1
y_1_33 0
y_33_1 1
y_1_34 0
y_34_1 1
y_1_35 0
y_35_1 1
y_1_36 0
y_36_1 1
y_1_37 0
y_37_1 1
y_1_38 0
y_38_1 1
y_1_39 0
y_39_1 1
y_2_3 1
y_3_2 0
y_2_4 0
y_4_2 1
y_2_5 0
y_5_2 1
y_2_6 0
y_6_2 1
y_2_7 0
y_7_2 1
y_2_8 0
y_8_2 1
y_2_9 0
y_9_2 1
y_2_10 0
y_10_2 1
y_2_11 0
y_11_2 1
y_2_12 0
y_12_2 1
y_2_13 0
y_13_2 1
y_2_14 0
y_14_2 1
y_2_15 0
y_15_2 1
y_2_16 0
y_16_2 1
y_2_17 0
y_17_2 1
y_2_18 0
y_18_2 1
y_2_19 0
y_19_2 1
y_2_20 0
y_20_2 1
y_2_21 0
y_21_2 1
y_2_22 0
y_22_2 1
y_2_23 0
y_23_2 1
y_2_24 0
y_24_2 1
y_2_25 0
y_25_2 1
y_2_26 0
y_26_2 1
y_2_27 0
y_27_2 1
y_2_28 0
y_28_2 1
y_2_29 0
y_29_2 1
y_2_30 0
y_30_2 1
y_2_31 0
y_31_2 1
y_2_32 0
y_32_2 1
y_2_33 0
y_33_2 1
y_2_34 0
y_34_2 1
y_2_35 0
y_35_2 1
y_2_36 0
y_36_2 1
y_2_37 0
y_37_2 1
y_2_38 0
y_38_2 1
y_2_39 0
y_39_2 1
y_3_4 0
y_4_3 1
y_3_5 0
y_5_3 1
y_3_6 0
y_6_3 1
y_3_7 0
y_7_3 1
y_3_8 0
y_8_3 1
y_3_9 0
y_9_3 1
y_3_10 0
y_10_3 1
y_3_11 0
y_11_3 1
y_3_12 0
y_12_3 1
y_3_13 0
y_13_3 1
y_3_14 0
y_14_3 1
y_3_15 0
y_15_3 1
y_3_16 0
y_16_3 1
y_3_17 0
y_17_3 1
y_3_18 0
y_18_3 1
y_3_19 0
y_19_3 1
y_3_20 0
y_20_3 1
y_3_21 0
y_21_3 1
y_3_22 0
y_22_3 1
y_3_23 0
y_23_3 1
y_3_24 0
y_24_3 1
y_3_25 0
y_25_3 1
y_3_26 0
y_26_3 1
y_3_27 0
y_27_3 1
y_3_28 0
y_28_3 1
y_3_29 0
y_29_3 1
y_3_30 0
y_30_3 1
y_3_31 0
y_31_3 1
y_3_32 0
y_32_3 1
y_3_33 0
y_33_3 1
y_3_34 0
y_34_3 1
y_3_35 0
y_35_3 1
y_3_36 0
y_36_3 1
y_3_37 0
y_37_3 1
y_3_38 0
y_38_3 1
y_3_39 0
y_39_3 1
y_4_5 0
y_5_4 1
y_4_6 0
y_6_4 1
y_4_7 0
y_7_4 1
y_4_8 0
y_8_4 1
y_4_9 0
y_9_4 1
y_4_10 0
y_10_4 1
y_4_11 0
y_11_4 1
y_4_12 0
y_12_4 1
y_4_13 0
y_13_4 1
y_4_14 0
y_14_4 1
y_4_15 0
y_15_4 1
y_4_16 0
y_16_4 1
y_4_17 0
y_17_4 1
y_4_18 0
y_18_4 1
y_4_19 0
y_19_4 1
y_4_20 0
y_20_4 1
y_4_21 0
y_21_4 1
y_4_22 0
y_22_4 1
y_4_23 0
y_23_4 1
y_4_24 0
y_24_4 1
y_4_25 0
y_25_4 1
y_4_26 0
y_26_4 1
y_4_27 0
y_27_4 1
y_4_28 0
y_28_4 1
y_4_29 0
y_29_4 1
y_4_30 0
y_30_4 1
y_4_31 0
y_31_4 1
y_4_32 0
y_32_4 1
y_4_33 0
y_33_4 1
y_4_34 0
y_34_4 1
y_4_35 0
y_35_4 1
y_4_36 0
y_36_4 1
y_4_37 0
y_37_4 1
y_4_38 0
y_38_4 1
y_4_39 0
y_39_4 1
y_5_6 0
y_6_5 1
y_5_7 0
y_7_5 1
y_5_8 0
y_8_5 1
y_5_9 0
y_9_5 1
y_5_10 0
y_10_5 1
y_5_11 0
y_11_5 1
y_5_12 0
y_12_5 1
y_5_13 0
y_13_5 1
y_5_14 0
y_14_5 1
y_5_15 0
y_15_5 1
y_5_16 0
y_16_5 1
y_5_17 0
y_17_5 1
y_5_18 0
y_18_5 1
y_5_19 0
y_19_5 1
y_5_20 0
y_20_5 1
y_5_21 0
y_21_5 1
y_5_22 0
y_22_5 1
y_5_23 0
y_23_5 1
y_5_24 0
y_24_5 1
y_5_25 0
y_25_5 1
y_5_26 0
y_26_5 1
y_5_27 0
y_27_5 1
y_5_28 0
y_28_5 1
y_5_29 0
y_29_5 1
y_5_30 0
y_30_5 1
y_5_31 0
y_31_5 1
y_5_32 0
y_32_5 1
y_5_33 0
y_33_5 1
y_5_34 0
y_34_5 1
y_5_35 0
y_35_5 1
y_5_36 0
y_36_5 1
y_5_37 0
y_37_5 1
y_5_38 0
y_38_5 1
y_5_39 0
y_39_5 1
y_6_7 0
y_7_6 1
y_6_8 0
y_8_6 1
y_6_9 0
y_9_6 1
y_6_10 0
y_10_6 1
y_6_11 0
y_11_6 1
y_6_12 0
y_12_6 1
y_6_13 0
y_13_6 1
y_6_14 0
y_14_6 1
y_6_15 0
y_15_6 1
y_6_16 0
y_16_6 1
y_6_17 0
y_17_6 1
y_6_18 0
y_18_6 1
y_6_19 0
y_19_6 1
y_6_20 0
y_20_6 1
y_6_21 0
y_21_6 1
y_6_22 0
y_22_6 1
y_6_23 0
y_23_6 1
y_6_24 0
y_24_6 1
y_6_25 0
y_25_6 1
y_6_26 0
y_26_6 1
y_6_27 0
y_27_6 1
y_6_28 0
y_28_6 1
y_6_29 0
y_29_6 1
y_6_30 0
y_30_6 1
y_6_31 0
y_31_6 1
y_6_32 0
y_32_6 1
y_6_33 0
y_33_6 1
y_6_34 0
y_34_6 1
y_6_35 0
y_35_6 1
y_6_36 0
y_36_6 1
y_6_37 0
y_37_6 1
y_6_38 0
y_38_6 1
y_6_39 0
y_39_6 1
y_7_8 0
y_8_7 1
y_7_9 0
y_9_7 1
y_7_10 0
y_10_7 1
y_7_11 0
y_11_7 1
y_7_12 0
y_12_7 1
y_7_13 0
y_13_7 1
y_7_14 0
y_14_7 1
y_7_15 0
y_15_7 1
y_7_16 0
y_16_7 1
y_7_17 0
y_17_7 1
y_7_18 0
y_18_7 1
y_7_19 0
y_19_7 1
y_7_20 0
y_20_7 1
y_7_21 0
y_21_7 1
y_7_22 0
y_22_7 1
y_7_23 0
y_23_7 1
y_7_24 0
y_24_7 1
y_7_25 0
y_25_7 1
y_7_26 0
y_26_7 1
y_7_27 0
y_27_7 1
y_7_28 0
y_28_7 1
y_7_29 0
y_29_7 1
y_7_30 0
y_30_7 1
y_7_31 0
y_31_7 1
y_7_32 0
y_32_7 1
y_7_33 0
y_33_7 1
y_7_34 0
y_34_7 1
y_7_35 0
y_35_7 1
y_7_36 0
y_36_7 1
y_7_37 0
y_37_7 1
y_7_38 0
y_38_7 1
y_7_39 0
y_39_7 1
y_8_9 1
y_9_8 0
y_8_10 0
y_10_8 1
y_8_11 1
y_11_8 0
y_8_12 0
y_12_8 1
y_8_13 0
y_13_8 1
y_8_14 0
y_14_8 1
y_8_15 0
y_15_8 1
y_8_16 0
y_16_8 1
y_8_17 0
y_17_8 1
y_8_18 1
y_18_8 0
y_8_19 0
y_19_8 1
y_8_20 0
y_20_8 1
y_8_21 0
y_21_8 1
y_8_22 0
y_22_8 1
y_8_23 0
y_23_8 1
y_8_24 0
y_24_8 1
y_8_25 0
y_25_8 1
y_8_26 0
y_26_8 1
y_8_27 0
y_27_8 1
y_8_28 0
y_28_8 1
y_8_29 0
y_29_8 1
y_8_30 0
y_30_8 1
y_8_31 0
y_31_8 1
y_8_32 0
y_32_8 1
y_8_33 0
y_33_8 1
y_8_34 0
y_34_8 1
y_8_35 0
y_35_8 1
y_8_36 0
y_36_8 1
y_8_37 0
y_37_8 1
y_8_38 0
y_38_8 1
y_8_39 0
y_39_8 1
y_9_10 0
y_10_9 1
y_9_11 0
y_11_9 1
y_9_12 0
y_12_9 1
y_9_13 0
y_13_9 1
y_9_14 0
y_14_9 1
y_9_15 0
y_15_9 1
y_9_16 0
y_16_9 1
y_9_17 0
y_17_9 1
y_9_18 0
y_18_9 1
y_9_19 0
y_19_9 1
y_9_20 0
y_20_9 1
y_9_21 0
y_21_9 1
y_9_22 0
y_22_9 1
y_9_23 0
y_23_9 1
y_9_24 0
y_24_9 1
y_9_25 0
y_25_9 1
y_9_26 0
y_26_9 1
y_9_27 0
y_27_9 1
y_9_28 0
y_28_9 1
y_9_29 0
y_29_9 1
y_9_30 0
y_30_9 1
y_9_31 0
y_31_9 1
y_9_32 0
y_32_9 1
y_9_33 0
y_33_9 1
y_9_34 0
y_34_9 1
y_9_35 0
y_35_9 1
y_9_36 0
y_36_9 1
y_9_37 0
y_37_9 1
y_9_38 0
y_38_9 1
y_9_39 0
y_39_9 1
y_10_11 1
y_11_10 0
y_10_12 0
y_12_10 1
y_10_13 0
y_13_10 1
y_10_14 0
y_14_10 1
y_10_15 0
y_15_10 1
y_10_16 0
y_16_10 1
y_10_17 0
y_17_10 1
y_10_18 1
y_18_10 0
y_10_19 0
y_19_10 1
y_10_20 0
y_20_10 1
y_10_21 0
y_21_10 1
y_10_22 0
y_22_10 1
y_10_23 0
y_23_10 1
y_10_24 0
y_24_10 1
y_10_25 0
y_25_10 1
y_10_26 0
y_26_10 1
y_10_27 0
y_27_10 1
y_10_28 0
y_28_10 1
y_10_29 0
y_29_10 1
y_10_30 0
y_30_10 1
y_10_31 0
y_31_10 1
y_10_32 0
y_32_10 1
y_10_33 0
y_33_10 1
y_10_34 0
y_34_10 1
y_10_35 0
y_35_10 1
y_10_36 0
y_36_10 1
y_10_37 0
y_37_10 1
y_10_38 0
y_38_10 1
y_10_39 0
y_39_10 1
y_11_12 0
y_12_11 1
y_11_13 0
y_13_11 1
y_11_14 0
y_14_11 1
y_11_15 0
y_15_11 1
y_11_16 0
y_16_11 1
y_11_17 0
y_17_11 1
y_11_18 0
y_18_11 1
y_11_19 0
y_19_11 1
y_11_20 0
y_20_11 1
y_11_21 0
y_21_11 1
y_11_22 0
y_22_11 1
y_11_23 0
y_23_11 1
y_11_24 0
y_24_11 1
y_11_25 0
y_25_11 1
y_11_26 0
y_26_11 1
y_11_27 0
y_27_11 1
y_11_28 0
y_28_11 1
y_11_29 0
y_29_11 1
y_11_30 0
y_30_11 1
y_11_31 0
y_31_11 1
y_11_32 0
y_32_11 1
y_11_33 0
y_33_11 1
y_11_34 0
y_34_11 1
y_11_35 0
y_35_11 1
y_11_36 0
y_36_11 1
y_11_37 0
y_37_11 1
y_11_38 0
y_38_11 1
y_11_39 0
y_39_11 1
y_12_13 0
y_13_12 1
y_12_14 0
y_14_12 1
y_12_15 0
y_15_12 1
y_12_16 0
y_16_12 1
y_12_17 0
y_17_12 1
y_12_18 1
y_18_12 0
y_12_19 0
y_19_12 1
y_12_20 0
y_20_12 1
y_12_21 0
y_21_12 1
y_12_22 0
y_22_12 1
y_12_23 0
y_23_12 1
y_12_24 0
y_24_12 1
y_12_25 0
y_25_12 1
y_12_26 0
y_26_12 1
y_12_27 0
y_27_12 1
y_12_28 0
y_28_12 1
y_12_29 0
y_29_12 1
y_12_30 0
y_30_12 1
y_12_31 0
y_31_12 1
y_12_32 0
y_32_12 1
y_12_33 0
y_33_12 1
y_12_34 0
y_34_12 1
y_12_35 0
y_35_12 1
y_12_36 0
y_36_12 1
y_12_37 0
y_37_12 1
y_12_38 0
y_38_12 1
y_12_39 0
y_39_12 1
y_13_14 0
y_14_13 1
y_13_15 0
y_15_13 1
y_13_16 0
y_16_13 1
y_13_17 0
y_17_13 1
y_13_18 1
y_18_13 0
y_13_19 0
y_19_13 1
y_13_20 0
y_20_13 1
y_13_21 0
y_21_13 1
y_13_22 0
y_22_13 1
y_13_23 0
y_23_13 1
y_13_24 0
y_24_13 1
y_13_25 0
y_25_13 1
y_13_26 0
y_26_13 1
y_13_27 0
y_27_13 1
y_13_28 0
y_28_13 1
y_13_29 0
y_29_13 1
y_13_30 0
y_30_13 1
y_13_31 0
y_31_13 1
y_13_32 0
y_32_13 1
y_13_33 0
y_33_13 1
y_13_34 0
y_34_13 1
y_13_35 0
y_35_13 1
y_13_36 0
y_36_13 1
y_13_37 0
y_37_13 1
y_13_38 0
y_38_13 1
y_13_39 0
y_39_13 1
y_14_15 0
y_15_14 1
y_14_16 0
y_16_14 1
y_14_17 0
y_17_14 1
y_14_18 1
y_18_14 0
y_14_19 0
y_19_14 1
y_14_20 0
y_20_14 1
y_14_21 0
y_21_14 1
y_14_22 0
y_22_14 1
y_14_23 0
y_23_14 1
y_14_24 0
y_24_14 1
y_14_25 0
y_25_14 1
y_14_26 0
y_26_14 1
y_14_27 0
y_27_14 1
y_14_28 0
y_28_14 1
y_14_29 0
y_29_14 1
y_14_30 0
y_30_14 1
y_14_31 0
y_31_14 1
y_14_32 0
y_32_14 1
y_14_33 0
y_33_14 1
y_14_34 0
y_34_14 1
y_14_35 0
y_35_14 1
y_14_36 0
y_36_14 1
y_14_37 0
y_37_14 1
y_14_38 0
y_38_14 1
y_14_39 0
y_39_14 1
y_15_16 0
y_16_15 1
y_15_17 0
y_17_15 1
y_15_18 1
y_18_15 0
y_15_19 0
y_19_15 1
y_15_20 0
y_20_15 1
y_15_21 0
y_21_15 1
y_15_22 0
y_22_15 1
y_15_23 0
y_23_15 1
y_15_24 0
y_24_15 1
y_15_25 0
y_25_15 1
y_15_26 0
y_26_15 1
y_15_27 0
y_27_15 1
y_15_28 0
y_28_15 1
y_15_29 0
y_29_15 1
y_15_30 0
y_30_15 1
y_15_31 0
y_31_15 1
y_15_32 0
y_32_15 1
y_15_33 0
y_33_15 1
y_15_34 0
y_34_15 1
y_15_35 0
y_35_15 1
y_15_36 0
y_36_15 1
y_15_37 0
y_37_15 1
y_15_38 0
y_38_15 1
y_15_39 0
y_39_15 1
y_16_17 0
y_17_16 1
y_16_18 1
y_18_16 0
y_16_19 0
y_19_16 1
y_16_20 0
y_20_16 1
y_16_21 0
y_21_16 1
y_16_22 0
y_22_16 1
y_16_23 0
y_23_16 1
y_16_24 0
y_24_16 1
y_16_25 0
y_25_16 1
y_16_26 0
y_26_16 1
y_16_27 0
y_27_16 1
y_16_28 0
y_28_16 1
y_16_29 0
y_29_16 1
y_16_30 0
y_30_16 1
y_16_31 0
y_31_16 1
y_16_32 0
y_32_16 1
y_16_33 0
y_33_16 1
y_16_34 0
y_34_16 1
y_16_35 0
y_35_16 1
y_16_36 0
y_36_16 1
y_16_37 0
y_37_16 1
y_16_38 0
y_38_16 1
y_16_39 0
y_39_16 1
y_17_18 1
y_18_17 0
y_17_19 0
y_19_17 1
y_17_20 0
y_20_17 1
y_17_21 0
y_21_17 1
y_17_22 0
y_22_17 1
y_17_23 0
y_23_17 1
y_17_24 0
y_24_17 1
y_17_25 0
y_25_17 1
y_17_26 0
y_26_17 1
y_17_27 0
y_27_17 1
y_17_28 0
y_28_17 1
y_17_29 0
y_29_17 1
y_17_30 0
y_30_17 1
y_17_31 0
y_31_17 1
y_17_32 0
y_32_17 1
y_17_33 0
y_33_17 1
y_17_34 0
y_34_17 1
y_17_35 0
y_35_17 1
y_17_36 0
y_36_17 1
y_17_37 0
y_37_17 1
y_17_38 0
y_38_17 1
y_17_39 0
y_39_17 1
y_18_19 0
y_19_18 1
y_18_20 0
y_20_18 1
y_18_21 0
y_21_18 1
y_18_22 0
y_22_18 1
y_18_23 0
y_23_18 1
y_18_24 0
y_24_18 1
y_18_25 0
y_25_18 1
y_18_26 0
y_26_18 1
y_18_27 0
y_27_18 1
y_18_28 0
y_28_18 1
y_18_29 0
y_29_18 1
y_18_30 0
y_30_18 1
y_18_31 0
y_31_18 1
y_18_32 0
y_32_18 1
y_18_33 0
y_33_18 1
y_18_34 0
y_34_18 1
y_18_35 0
y_35_18 1
y_18_36 0
y_36_18 1
y_18_37 0
y_37_18 1
y_18_38 0
y_38_18 1
y_18_39 0
y_39_18 1
y_19_20 0
y_20_19 1
y_19_21 0
y_21_19 1
y_19_22 0
y_22_19 1
y_19_23 0
y_23_19 1
y_19_24 0
y_24_19 1
y_19_25 0
y_25_19 1
y_19_26 0
y_26_19 1
y_19_27 0
y_27_19 1
y_19_28 0
y_28_19 1
y_19_29 0
y_29_19 1
y_19_30 0
y_30_19 1
y_19_31 0
y_31_19 1
y_19_32 0
y_32_19 1
y_19_33 0
y_33_19 1
y_19_34 0
y_34_19 1
y_19_35 0
y_35_19 1
y_19_36 0
y_36_19 1
y_19_37 0
y_37_19 1
y_19_38 0
y_38_19 1
y_19_39 0
y_39_19 1
y_20_21 0
y_21_20 1
y_20_22 0
y_22_20 1
y_20_23 0
y_23_20 1
y_20_24 0
y_24_20 1
y_20_25 0
y_25_20 1
y_20_26 0
y_26_20 1
y_20_27 0
y_27_20 1
y_20_28 0
y_28_20 1
y_20_29 0
y_29_20 1
y_20_30 0
y_30_20 1
y_20_31 0
y_31_20 1
y_20_32 0
y_32_20 1
y_20_33 0
y_33_20 1
y_20_34 0
y_34_20 1
y_20_35 0
y_35_20 1
y_20_36 0
y_36_20 1
y_20_37 0
y_37_20 1
y_20_38 0
y_38_20 1
y_20_39 0
y_39_20 1
y_21_22 0
y_22_21 1
y_21_23 0
y_23_21 1
y_21_24 0
y_24_21 1
y_21_25 0
y_25_21 1
y_21_26 0
y_26_21 1
y_21_27 0
y_27_21 1
y_21_28 0
y_28_21 1
y_21_29 0
y_29_21 1
y_21_30 0
y_30_21 1
y_21_31 0
y_31_21 1
y_21_32 0
y_32_21 1
y_21_33 0
y_33_21 1
y_21_34 0
y_34_21 1
y_21_35 0
y_35_21 1
y_21_36 0
y_36_21 1
y_21_37 0
y_37_21 1
y_21_38 0
y_38_21 1
y_21_39 0
y_39_21 1
y_22_23 0
y_23_22 1
y_22_24 0
y_24_22 1
y_22_25 0
y_25_22 1
y_22_26 0
y_26_22 1
y_22_27 0
y_27_22 1
y_22_28 0
y_28_22 1
y_22_29 0
y_29_22 1
y_22_30 0
y_30_22 1
y_22_31 0
y_31_22 1
y_22_32 0
y_32_22 1
y_22_33 0
y_33_22 1
y_22_34 0
y_34_22 1
y_22_35 0
y_35_22 1
y_22_36 0
y_36_22 1
y_22_37 0
y_37_22 1
y_22_38 0
y_38_22 1
y_22_39 0
y_39_22 1
y_23_24 0
y_24_23 1
y_23_25 0
y_25_23 1
y_23_26 0
y_26_23 1
y_23_27 0
y_27_23 1
y_23_28 0
y_28_23 1
y_23_29 0
y_29_23 1
y_23_30 0
y_30_23 1
y_23_31 0
y_31_23 1
y_23_32 0
y_32_23 1
y_23_33 0
y_33_23 1
y_23_34 0
y_34_23 1
y_23_35 0
y_35_23 1
y_23_36 0
y_36_23 1
y_23_37 0
y_37_23 1
y_23_38 0
y_38_23 1
y_23_39 0
y_39_23 1
y_24_25 0
y_25_24 1
y_24_26 0
y_26_24 1
y_24_27 0
y_27_24 1
y_24_28 0
y_28_24 1
y_24_29 0
y_29_24 1
y_24_30 0
y_30_24 1
y_24_31 0
y_31_24 1
y_24_32 0
y_32_24 1
y_24_33 0
y_33_24 1
y_24_34 0
y_34_24 1
y_24_35 0
y_35_24 1
y_24_36 0
y_36_24 1
y_24_37 0
y_37_24 1
y_24_38 0
y_38_24 1
y_24_39 0
y_39_24 1
y_25_26 0
y_26_25 1
y_25_27 0
y_27_25 1
y_25_28 0
y_28_25 1
y_25_29 0
y_29_25 1
y_25_30 0
y_30_25 1
y_25_31 0
y_31_25 1
y_25_32 0
y_32_25 1
y_25_33 0
y_33_25 1
y_25_34 0
y_34_25 1
y_25_35 0
y_35_25 1
y_25_36 0
y_36_25 1
y_25_37 0
y_37_25 1
y_25_38 0
y_38_25 1
y_25_39 0
y_39_25 1
y_26_27 0
y_27_26 1
y_26_28 0
y_28_26 1
y_26_29 0
y_29_26 1
y_26_30 0
y_30_26 1
y_26_31 0
y_31_26 1
y_26_32 0
y_32_26 1
y_26_33 0
y_33_26 1
y_26_34 0
y_34_26 1
y_26_35 0
y_35_26 1
y_26_36 0
y_36_26 1
y_26_37 0
y_37_26 1
y_26_38 0
y_38_26 1
y_26_39 0
y_39_26 1
y_27_28 0
y_28_27 1
y_27_29 0
y_29_27 1
y_27_30 0
y_30_27 1
y_27_31 0
y_31_27 1
y_27_32 0
y_32_27 1
y_27_33 0
y_33_27 1
y_27_34 0
y_34_27 1
y_27_35 0
y_35_27 1
y_27_36 0
y_36_27 1
y_27_37 0
y_37_27 1
y_27_38 0
y_38_27 1
y_27_39 0
y_39_27 1
y_28_29 0
y_29_28 1
y_28_30 0
y_30_28 1
y_28_31 0
y_31_28 1
y_28_32 0
y_32_28 1
y_28_33 0
y_33_28 1
y_28_34 0
y_34_28 1
y_28_35 0
y_35_28 1
y_28_36 0
y_36_28 1
y_28_37 0
y_37_28 1
y_28_38 0
y_38_28 1
y_28_39 0
y_39_28 1
y_29_30 0
y_30_29 1
y_29_31 0
y_31_29 1
y_29_32 0
y_32_29 1
y_29_33 0
y_33_29 1
y_29_34 0
y_34_29 1
y_29_35 0
y_35_29 1
y_29_36 0
y_36_29 1
y_29_37 0
y_37_29 1
y_29_38 0
y_38_29 1
y_29_39 0
y_39_29 1
y_30_31 0
y_31_30 1
y_30_32 0
y_32_30 1
y_30_33 0
y_33_30 1
y_30_34 0
y_34_30 1
y_30_35 0
y_35_30 1
y_30_36 0
y_36_30 1
y_30_37 0
y_37_30 1
y_30_38 0
y_38_30 1
y_30_39 0
y_39_30 1
y_31_32 0
y_32_31 1
y_31_33 0
y_33_31 1
y_31_34 0
y_34_31 1
y_31_35 0
y_35_31 1
y_31_36 0
y_36_31 1
y_31_37 0
y_37_31 1
y_31_38 0
y_38_31 1
y_31_39 0
y_39_31 1
y_32_33 0
y_33_32 1
y_32_34 0
y_34_32 1
y_32_35 0
y_35_32 1
y_32_36 0
y_36_32 1
y_32_37 0
y_37_32 1
y_32_38 0
y_38_32 1
y_32_39 0
y_39_32 1
y_33_34 0
y_34_33 1
y_33_35 0
y_35_33 1
y_33_36 0
y_36_33 1
y_33_37 0
y_37_33 1
y_33_38 0
y_38_33 1
y_33_39 0
y_39_33 1
y_34_35 0
y_35_34 1
y_34_36 0
y_36_34 1
y_34_37 0
y_37_34 1
y_34_38 0
y_38_34 1
y_34_39 0
y_39_34 1
y_35_36 0
y_36_35 1
y_35_37 0
y_37_35 1
y_35_38 0
y_38_35 1
y_35_39 0
y_39_35 1
y_36_37 0
y_37_36 1
y_36_38 0
y_38_36 1
y_36_39 0
y_39_36 1
y_37_38 0
y_38_37 1
y_37_39 0
y_39_37 1
y_38_39 0
y_39_38 1
pos_e0 23
pos_e1 22
pos_e2 20
pos_e3 19
pos_e4 21
pos_e5 17
pos_e6 18
pos_e7 16
pos_e8 15
pos_e9 13
pos_e10 14
pos_e11 12
pos_e12 11
pos_e13 10
pos_e14 9
pos_e15 8
pos_e16 6
pos_e17 7
pos_e18 5
pos_e19 4
pos_e20 2
pos_e21 3
pos_e22 0
pos_e23 1
z_e0_e1 1
z_e0_e2 0
z_e0_e3 0
z_e0_e4 0
z_e0_e5 0
z_e0_e6 0
z_e0_e7 0
z_e0_e8 0
z_e0_e9 0
z_e0_e10 0
z_e0_e11 0
z_e0_e12 0
z_e0_e13 0
z_e0_e14 0
z_e0_e15 0
z_e0_e16 0
z_e0_e17 0
z_e0_e18 0
z_e0_e19 0
z_e0_e20 0
z_e0_e21 0
z_e0_e22 0
z_e0_e23 0
z_e1_e2 0
z_e1_e3 0
z_e1_e4 1
z_e1_e5 0
z_e1_e6 0
z_e1_e7 0
z_e1_e8 0
z_e1_e9 0
z_e1_e10 0
z_e1_e11 0
z_e1_e12 0
z_e1_e13 0
z_e1_e14 0
z_e1_e15 0
z_e1_e16 0
z_e1_e17 0
z_e1_e18 0
z_e1_e19 0
z_e1_e20 0
z_e1_e21 0
z_e1_e22 0
z_e1_e23 0
z_e2_e3 1
z_e2_e4 1
z_e2_e5 0
z_e2_e6 0
z_e2_e7 0
z_e2_e8 0
z_e2_e9 0
z_e2_e10 0
z_e2_e11 0
z_e2_e12 0
z_e2_e13 0
z_e2_e14 0
z_e2_e15 0
z_e2_e16 0
z_e2_e17 0
z_e2_e18 0
z_e2_e19 0
z_e2_e20 0
z_e2_e21 0
z_e2_e22 0
z_e2_e23 0
z_e3_e4 0
z_e3_e5 0
z_e3_e6 1
z_e3_e7 0
z_e3_e8 0
z_e3_e9 0
z_e3_e10 0
z_e3_e11 0
z_e3_e12 0
z_e3_e13 0
z_e3_e14 0
z_e3_e15 0
z_e3_e16 0
z_e3_e17 0
z_e3_e18 0
z_e3_e19 0
z_e3_e20 0
z_e3_e21 0
z_e3_e22 0
z_e3_e23 0
z_e4_e5 0
z_e4_e6 0
z_e4_e7 0
z_e4_e8 0
z_e4_e9 0
z_e4_e10 0
z_e4_e11 0
z_e4_e12 0
z_e4_e13 0
z_e4_e14 0
z_e4_e15 0
z_e4_e16 0
z_e4_e17 0
z_e4_e18 0
z_e4_e19 0
z_e4_e20 0
z_e4_e21 0
z_e4_e22 0
z_e4_e23 0
z_e5_e6 1
z_e5_e7 1
z_e5_e8 0
z_e5_e9 0
z_e5_e10 0
z_e5_e11 0
z_e5_e12 0
z_e5_e13 0
z_e5_e14 0
z_e5_e15 0
z_e5_e16 0
z_e5_e17 0
z_e5_e18 0
z_e5_e19 0
z_e5_e20 0
z_e5_e21 0
z_e5_e22 0
z_e5_e23 0
z_e6_e7 0
z_e6_e8 0
z_e6_e9 0
z_e6_e10 0
z_e6_e11 0
z_e6_e12 0
z_e6_e13 0
z_e6_e14 0
z_e6_e15 0
z_e6_e16 0
z_e6_e17 0
z_e6_e18 0
z_e6_e19 0
z_e6_e20 0
z_e6_e21 0
z_e6_e22 0
z_e6_e23 0
z_e7_e8 1
z_e7_e9 0
z_e7_e10 0
z_e7_e11 0
z_e7_e12 0
z_e7_e13 0
z_e7_e14 0
z_e7_e15 0
z_e7_e16 0
z_e7_e17 0
z_e7_e18 0
z_e7_e19 0
z_e7_e20 0
z_e7_e21 0
z_e7_e22 0
z_e7_e23 0
z_e8_e9 0
z_e8_e10 1
z_e8_e11 0
z_e8_e12 0
z_e8_e13 0
z_e8_e14 0
z_e8_e15 0
z_e8_e16 0
z_e8_e17 0
z_e8_e18 0
z_e8_e19 0
z_e8_e20 0
z_e8_e21 0
z_e8_e22 0
z_e8_e23 0
z_e9_e10 1
z_e9_e11 1
z_e9_e12 0
z_e9_e13 0
z_e9_e14 0
z_e9_e15 0
z_e9_e16 0
z_e9_e17 0
z_e9_e18 0
z_e9_e19 0
z_e9_e20 0
z_e9_e21 0
z_e9_e22 0
z_e9_e23 0
z_e10_e11 0
z_e10_e12 0
z_e10_e13 0
z_e10_e14 0
z_e10_e15 0
z_e10_e16 0
z_e10_e17 0
z_e10_e18 0
z_e10_e19 0
z_e10_e20 0
z_e10_e21 0
z_e10_e22 0
z_e10_e23 0
z_e11_e12 1
z_e11_e13 0
z_e11_e14 0
z_e11_e15 0
z_e11_e16 0
z_e11_e17 0
z_e11_e18 0
z_e11_e19 0
z_e11_e20 0
z_e11_e21 0
z_e11_e22 0
z_e11_e23 0
z_e12_e13 1
z_e12_e14 0
z_e12_e15 0
z_e12_e16 0
z_e12_e17 0
z_e12_e18 0
z_e12_e19 0
z_e12_e20 0
z_e12_e21 0
z_e12_e22 0
z_e12_e23 0
z_e13_e14 1
z_e13_e15 0
z_e13_e16 0
z_e13_e17 0
z_e13_e18 0
z_e13_e19 0
z_e13_e20 0
z_e13_e21 0
z_e13_e22 0
z_e13_e23 0
z_e14_e15 1
z_e14_e16 0
z_e14_e17 0
z_e14_e18 0
z_e14_e19 0
z_e14_e20 0
z_e14_e21 0
z_e14_e22 0
z_e14_e23 0
z_e15_e16 0
z_e15_e17 1
z_e15_e18 0
z_e15_e19 0
z_e15_e20 0
z_e15_e21 0
z_e15_e22 0
z_e15_e23 0
z_e16_e17 1
z_e16_e18 1
z_e16_e19 0
z_e16_e20 0
z_e16_e21 0
z_e16_e22 0
z_e16_e23 0
z_e17_e18 0
z_e17_e19 0
z_e17_e20 0
z_e17_e21 0
z_e17_e22 0
z_e17_e23 0
z_e18_e19 1
z_e18_e20 0
z_e18_e21 0
z_e18_e22 0
z_e18_e23 0
z_e19_e20 0
z_e19_e21 1
z_e19_e22 0
z_e19_e23 0
z_e20_e21 1
z_e20_e22 0
z_e20_e23 1
z_e21_e22 0
z_e21_e23 0
z_e22_e23 1
total_red_eps 0
total_blue_eps 0
total_eps 0
